sing20190404.00
TTAA 54001 48698
99009 26628 32502 00105 26436 33504 92792 23456 32007
85525 17836 29509 70165 10050 31509 50590 04556 27513
40762 15956 24008 30972 30158 29004 25099 40958 14007
20247 53156 11022 15427 65560 30514 10664 80156 33004
88999
77999=
TTCC 54007 48698
70864 80961 17511
88999
77999=
TTDD 5400/ 48698
11897 83947 22810 84156 33733 79762 44666 82560 55631
75767
21212 11868 16011 22850 18017 33799 18021 44769 16013
55760 18012 66730 16017 77690 18010 88672 16012 99663
18013 11648 18011 22631 32508=
